CMD:
./solvers/bin/cadical --plain --no-reduce -t 1600 ./data/cnfs//oski15a01b01s/oski15a01b01s.24.cnf

c --- [ banner ] -------------------------------------------------------------
c 
c CaDiCaL SAT Solver
c Copyright (c) 2016-2024
c A. Biere, M. Fleury, N. Froleyks, K. Fazekas, F. Pollitt, T. Faller
c JKU Linz, University of Freiburg, TU Wien
c 
c Version 2.1.3 5296d3d2a9bf48c154ab2acb5e44625776d821bf
c g++ (Gentoo 12.3.1_p20230526 p2) 12.3.1 20230526 -Wall -Wextra -O3 -DNDEBUG
c Sat Aug 9 07:26:21 PDT 2025 Linux cedar2.int.cedar.computecanada.ca 5.14.0-362.24.2.el9_3.x86_64 x86_64
c 
c --- [ limit ] --------------------------------------------------------------
c 
c setting time limit to 1600 seconds real time (due to '-t 1600')
c 
c --- [ parsing input ] ------------------------------------------------------
c 
c reading DIMACS file from './data/cnfs//oski15a01b01s/oski15a01b01s.24.cnf'
c opening file to read './data/cnfs//oski15a01b01s/oski15a01b01s.24.cnf'
c found 'p cnf 8064274 23010965' header
c parsed 23010965 clauses in 3.87 seconds process time
c 
c --- [ options ] ------------------------------------------------------------
c 
c   --compact=false                (different from default 'true')
c   --decompose=false              (different from default 'true')
c   --deduplicate=false            (different from default 'true')
c   --elim=false                   (different from default 'true')
c   --probe=false                  (different from default 'true')
c   --reduce=false                 (different from default 'true')
c   --subsume=false                (different from default 'true')
c   --ternary=false                (different from default 'true')
c   --transred=false               (different from default 'true')
c   --vivify=false                 (different from default 'true')
c 
c --- [ solving ] ------------------------------------------------------------
c 
c time measured in process time since initialization
c 
c  seconds    reductions  redundant   irredundant
c          MB     restarts       trail          variables
c            level   conflicts       glue             remaining
c 
c *  3.87 3398  0 0   0    0    0  0% 0 21216361 6081329 75%
c {  5.20 3445  0 0   0    0    0  0% 0 21216361 6081329 75%
c i  6.97 3448 8863 0  23  129  128 29% 3 21216361 6081328 75%
c i  6.98 3448 8533 0  24  135  131 29% 3 21216361 6081327 75%
c i  6.98 3448 6852 0  25  170  163 28% 3 21216361 6081324 75%
c i  6.98 3448 6811 0  25  171  163 28% 3 21216361 6081321 75%
c i  6.98 3448 6731 0  25  173  164 28% 3 21216361 6081320 75%
c i  7.00 3449 4983 0  29  236  219 27% 3 21216361 6081314 75%
c i  7.00 3449 4629 0  29  254  234 27% 3 21216361 6081308 75%
c i  7.00 3449 4592 0  29  257  234 27% 3 21216361 6081305 75%
c i  7.00 3449 4539 0  29  260  236 27% 3 21216361 6081303 75%
c i  7.69 3451 7011 0  35  348  323 29% 3 21216361 6081301 75%
c i  7.70 3451 6910 0  35  353  325 29% 3 21216361 6081300 75%
c i  7.71 3452 6376 0  40  384  351 29% 3 21216361 6081299 75%
c i  7.71 3452 6275 0  40  390  355 29% 3 21216361 6081298 75%
c i  7.71 3452 6210 0  40  394  358 29% 3 21216361 6081295 75%
c i  7.72 3452 5062 0  40  484  444 28% 3 21216361 6081292 75%
c i  7.72 3452 5051 0  40  485  444 28% 3 21216361 6081289 75%
c i  7.73 3452 4221 0  40  594  537 28% 3 21216361 6081287 75%
c i  7.76 3452 4183 0  40  600  540 28% 3 21216361 6081278 75%
c 
c  seconds      reductions  redundant   irredundant
c          MB       restarts       trail          variables
c             level    conflicts       glue             remaining
c 
c i  7.76 3452 4176 0  40  601  540 28% 3 21216361 6081275 75%
c i  7.76 3452 4169 0  40  603  540 27% 3 21216361 6081272 75%
c i  7.94 3453 4086 0  41  626  562 27% 3 21216361 6081199 75%
c i  7.94 3453 4079 0  41  627  562 27% 3 21216361 6081131 75%
c i  7.94 3453 4073 0  41  628  562 27% 3 21216361 6081033 75%
c i  7.94 3453 4066 0  41  629  562 27% 3 21216361 6080816 75%
c i  7.94 3453 4026 0  41  636  566 27% 3 21216361 6080658 75%
c i  7.94 3453 3981 0  41  643  571 27% 3 21216361 6080486 75%
c i  7.94 3453 3969 0  41  645  572 27% 3 21216361 6080483 75%
c i  7.94 3453 3937 0  41  650  575 27% 3 21216361 6080070 75%
c i  7.94 3453 3925 0  41  652  576 27% 3 21216361 6080067 75%
c i  7.94 3453 3894 0  41  657  580 27% 3 21216361 6079973 75%
c i  8.85 3455 5118 0  60  946  839 29% 3 21216361 6079901 75%
c i  8.85 3455 5114 0  60  948  839 29% 3 21216361 6079899 75%
c }  8.98 3455 6077 0  60 1000  883 30% 3 21216361 6079899 75%
c [  8.98 3455  0 0  60 1000  883  0% 0 21216361 6079899 75%
c O  9.55 3455 26994 0  60 1002  885 62% 2 21216361 6079898 75%
c i 10.48 3457 9920 0  61 2613 2355 56% 10 21216361 6079897 75%
c ] 10.57 3457 7994 0  61 3001 2708 50% 10 21216361 6079897 75%
c { 10.57 3457 6077 0  61 3001 2708 30% 3 21216361 6079897 75%
c 
c  seconds      reductions  redundant   irredundant
c          MB       restarts       trail          variables
c             level    conflicts       glue             remaining
c 
c F 10.58 3457 6064 0  61 3003 2710 30% 3 21216361 6079897 75%
c i 10.67 3457 5423 0  61 3116 2821 30% 3 21216361 6079895 75%
c i 10.73 3457 5187 0  61 3168 2869 30% 3 21216361 6079889 75%
c i 10.82 3457 4805 0  61 3268 2956 29% 3 21216361 6079884 75%
... skipped 969358 lines ...
v -8063866 -8063867 8063868 8063869 -8063870 -8063871 -8063872 -8063873
v 8063874 8063875 -8063876 -8063877 -8063878 -8063879 8063880 8063881 -8063882
v -8063883 -8063884 -8063885 8063886 8063887 -8063888 -8063889 -8063890
v -8063891 8063892 8063893 -8063894 -8063895 8063896 -8063897 8063898 8063899
v -8063900 -8063901 -8063902 -8063903 8063904 8063905 -8063906 -8063907
v 8063908 -8063909 8063910 8063911 -8063912 -8063913 8063914 -8063915 8063916
v 8063917 -8063918 -8063919 -8063920 -8063921 8063922 8063923 -8063924
v -8063925 -8063926 -8063927 8063928 8063929 -8063930 -8063931 8063932
v -8063933 8063934 8063935 -8063936 -8063937 -8063938 -8063939 8063940 8063941
v -8063942 -8063943 8063944 -8063945 8063946 8063947 -8063948 -8063949
v -8063950 -8063951 8063952 8063953 -8063954 -8063955 8063956 -8063957 8063958
v 8063959 -8063960 -8063961 8063962 -8063963 8063964 8063965 -8063966 -8063967
v -8063968 -8063969 8063970 8063971 -8063972 -8063973 8063974 -8063975 8063976
v 8063977 -8063978 -8063979 -8063980 -8063981 8063982 8063983 -8063984
v -8063985 8063986 -8063987 8063988 8063989 -8063990 -8063991 8063992 -8063993
v 8063994 8063995 -8063996 -8063997 8063998 -8063999 8064000 8064001 -8064002
v -8064003 -8064004 -8064005 8064006 8064007 -8064008 -8064009 8064010
v -8064011 8064012 8064013 -8064014 -8064015 8064016 -8064017 8064018 8064019
v -8064020 -8064021 -8064022 -8064023 8064024 8064025 -8064026 -8064027
v -8064028 -8064029 8064030 8064031 -8064032 -8064033 -8064034 -8064035
v 8064036 8064037 -8064038 -8064039 8064040 -8064041 8064042 8064043 -8064044
v -8064045 -8064046 -8064047 8064048 8064049 -8064050 -8064051 -8064052
v -8064053 8064054 8064055 -8064056 -8064057 8064058 -8064059 8064060 8064061
v -8064062 -8064063 -8064064 -8064065 8064066 8064067 -8064068 -8064069
v -8064070 -8064071 8064072 8064073 -8064074 -8064075 8064076 -8064077 8064078
v 8064079 -8064080 -8064081 -8064082 -8064083 8064084 8064085 -8064086
v -8064087 8064088 -8064089 8064090 8064091 -8064092 -8064093 -8064094
v -8064095 8064096 8064097 -8064098 -8064099 -8064100 -8064101 8064102 8064103
v -8064104 -8064105 -8064106 -8064107 8064108 8064109 -8064110 -8064111
v -8064112 -8064113 8064114 8064115 -8064116 -8064117 8064118 -8064119 8064120
v 8064121 -8064122 -8064123 -8064124 -8064125 8064126 8064127 -8064128
v -8064129 -8064130 -8064131 -8064132 8064133 -8064134 -8064135 -8064136
v 8064137 -8064138 -8064139 8064140 -8064141 -8064142 8064143 -8064144
v -8064145 8064146 -8064147 -8064148 8064149 -8064150 -8064151 8064152
v -8064153 -8064154 8064155 -8064156 -8064157 8064158 -8064159 -8064160
v 8064161 -8064162 -8064163 8064164 -8064165 -8064166 8064167 -8064168
v -8064169 8064170 -8064171 -8064172 8064173 -8064174 -8064175 8064176
v -8064177 -8064178 8064179 -8064180 -8064181 8064182 -8064183 -8064184
v -8064185 8064186 -8064187 -8064188 -8064189 8064190 8064191 -8064192
v -8064193 8064194 -8064195 -8064196 8064197 -8064198 -8064199 8064200
v -8064201 -8064202 8064203 -8064204 -8064205 8064206 -8064207 -8064208
v 8064209 -8064210 -8064211 8064212 -8064213 -8064214 8064215 -8064216
v -8064217 8064218 -8064219 -8064220 8064221 -8064222 -8064223 8064224
v -8064225 -8064226 8064227 -8064228 -8064229 8064230 -8064231 -8064232
v 8064233 -8064234 -8064235 -8064236 -8064237 8064238 8064239 -8064240
v -8064241 -8064242 -8064243 -8064244 -8064245 8064246 8064247 -8064248
v -8064249 -8064250 -8064251 8064252 -8064253 8064254 8064255 -8064256
v -8064257 -8064258 -8064259 -8064260 -8064261 -8064262 8064263 -8064264
v -8064265 8064266 -8064267 8064268 -8064269 -8064270 8064271 -8064272 8064273
v -8064274 0
c 
c --- [ run-time profiling ] -------------------------------------------------
c 
c process time taken by individual solving procedures
c (percentage relative to process time for solving)
c 
c       322.06  100.00% search
c       210.87   65.48% unstable
c        89.08   27.66% stable
c        20.78    6.45% walk
c         3.87    1.20% parse
c         1.32    0.41% lucky
c         0.00    0.00% simplify
c   =================================
c       322.06   98.70% solve
c 
c last line shows process time for solving
c (percentage relative to total process time)
c 
c --- [ statistics ] ---------------------------------------------------------
c 
c chronological:            102279        60.76 %  of conflicts
c conflicts:                168323       522.65    per second
c decisions:               8455679     26255.17    per second
c fixed:                   2108544        26.15 %  of all variables
c learned:                  153850        91.40 %  per conflict
c learned_lits:            4636760       100.00 %  learned literals
c minimized:                     0         0.00 %  learned literals
c shrunken:                 385078         8.30 %  learned literals
c minishrunken:             421973         9.10 %  learned literals
c otfs:                       6963         4.14 %  of conflict
c propagations:         3060152807         9.50 M  per second
c rephased:                     17      9901.35    interval
c restarts:                  11262        14.95    interval
c stabilizing:                   4        49.48 %  of conflicts
c subsumed:                   8336         0.04 %  of all clauses
c strengthened:               6918         0.03 %  of all clauses
c walked:                        5     33664.60    interval
c 
c seconds are measured in process time for solving
c 
c --- [ resources ] ----------------------------------------------------------
c 
c total process time since initialization:       326.31    seconds
c total real time since initialization:          328.46    seconds
c maximum resident set size of process:         4564.68    MB
c 
c --- [ shutting down ] ------------------------------------------------------
c 
c exit 10
